50
49 18
4 42
12 77
20 55
8 19
81 47
72 61
65 99
33 53
7 86
6 82
1 11
86 50
66 78
40 52
62 9
89 92
65 35
73 66
39 65
51 25
64 61
10 67
83 7
16 76
92 62
11 73
13 23
42 90
50 77
6 82
0 7
2 66
89 90
2 31
8 10
63 71
47 42
82 75
45 67
92 79
38 80
92 100
96 31
10 85
75 37
97 92
15 51
8 84
78 68
